N = 10;
H = 6;
T = 2;

avail = array3d(1..N, 1..H, 1..T, [6, 9, 3, 6, 7, 1, 10, 8, 5, 7, 1, 7, 2, 10, 2, 3, 2, 8, 5, 0, 8, 5, 1, 9, 1, 1, 3, 7, 5, 0, 5, 9, 4, 0, 1, 4, 2, 7, 3, 9, 2, 5, 1, 7, 7, 4, 7, 9, 10, 5, 5, 8, 3, 7, 10, 8, 8, 8, 2, 7, 3, 9, 7, 2, 8, 6, 4, 2, 9, 9, 4, 0, 2, 3, 10, 3, 0, 9, 8, 10, 8, 8, 3, 3, 3, 10, 4, 0, 9, 10, 5, 6, 5, 6, 1, 6, 7, 8, 7, 4, 10, 4, 10, 9, 6, 0, 8, 0, 3, 9, 8, 1, 3, 0, 1, 8, 4, 5, 5, 6]);

r = array2d(1..H, 1..T, [2, 2, 2, 1, 2, 1, 3, 0, 1, 2, 2, 3]);
